NAME : in_house_9_24
TYPE : TSP
DIMENSION : 9
EDGE_WEIGHT_TYPE : EXPLICIT
EDGE_WEIGHT_FORMAT : UPPER_ROW
COMMENT : INVERSION_SHIFT=8
EDGE_WEIGHT_SECTION
77
43
32
18
60
34
16
60
49
36
70
60
11
28
18
63
60
63
60
17
18
43
65
10
73
7
13
81
20
23
13
45
5
25
45
48
